Copyright (C) 2013-2015, Filipe Brandao
Build (method = -2)
  #dp: 8600
  Step-3' Graph: 316 vertices and 3903 arcs (0.02s)
  Step-4' Graph: 210 vertices and 3657 arcs (0.02s)
  #V4/#V3 = 0.66
  #A4/#A3 = 0.94
Ready! (0.02s)
Optimize a model with 255 rows, 3658 columns and 10560 nonzeros
Presolve removed 5 rows and 7 columns
Presolve time: 0.03s
Presolved: 250 rows, 3651 columns, 10549 nonzeros
Variable types: 0 continuous, 3651 integer (861 binary)
Optimize a model with 250 rows, 3651 columns and 10549 nonzeros
Presolved: 250 rows, 3651 columns, 10549 nonzeros

Root barrier log...

Ordering time: 0.00s

Barrier statistics:
 AA' NZ     : 5.869e+03
 Factor NZ  : 1.455e+04 (roughly 2 MBytes of memory)
 Factor Ops : 1.135e+06 (less than 1 second per iteration)
 Threads    : 1

                  Objective                Residual
Iter       Primal          Dual         Primal    Dual     Compl     Time
   0   2.32531582e+04 -8.51301319e+04  2.34e+05 1.59e-01  2.72e+02     0s
   1   6.19986437e+03 -2.49979502e+04  3.74e+04 6.66e-16  4.48e+01     0s
   2   9.17754264e+02 -9.02129268e+03  3.61e+03 1.55e-14  5.15e+00     0s
   3   3.11558812e+02 -3.33175075e+03  4.44e+02 3.00e-15  8.91e-01     0s
   4   1.64222816e+02 -8.54458848e+02  8.04e+01 4.44e-15  1.92e-01     0s
   5   1.27244448e+02 -4.51212318e+02  3.59e+01 2.78e-15  9.80e-02     0s
   6   1.14001766e+02 -3.59540752e+02  2.40e+01 2.44e-15  7.62e-02     0s
   7   9.44019431e+01 -2.65690591e+02  1.45e+01 1.44e-15  5.54e-02     0s
   8   5.81090861e+01 -1.12726951e+02  4.70e+00 1.47e-15  2.50e-02     0s
   9   3.40365760e+01 -2.92208074e+01  1.92e+00 1.06e-15  9.18e-03     0s
  10   2.84182464e+01 -1.12901544e+01  1.09e+00 1.47e-15  5.67e-03     0s
  11   2.95053015e+01 -2.11753227e+00  8.49e-01 1.71e-15  4.47e-03     0s
  12   2.66492496e+01  5.50333668e+00  5.40e-01 1.53e-15  2.96e-03     0s
  13   2.32968186e+01  1.53237858e+01  1.35e-01 1.40e-15  1.10e-03     0s
  14   2.21399861e+01  2.00749956e+01  3.17e-02 1.22e-15  2.83e-04     0s
  15   2.16501546e+01  2.10078946e+01  3.61e-03 1.14e-15  8.78e-05     0s
  16   2.15052540e+01  2.13302590e+01  2.75e-04 1.51e-15  2.39e-05     0s
  17   2.14829307e+01  2.14171757e+01  1.01e-04 1.58e-15  8.97e-06     0s
  18   2.14706556e+01  2.14537441e+01  1.70e-05 1.34e-15  2.31e-06     0s
  19   2.14676425e+01  2.14658665e+01  5.29e-07 1.36e-15  2.42e-07     0s
  20   2.14675029e+01  2.14674398e+01  1.05e-12 1.39e-15  8.61e-09     0s
  21   2.14675000e+01  2.14674999e+01  4.49e-12 1.22e-15  1.97e-11     0s

Barrier solved model in 21 iterations and 0.04 seconds
Optimal objective 2.14675000e+01


Root relaxation: objective 2.146750e+01, 1394 iterations, 0.05 seconds

    Nodes    |    Current Node    |     Objective Bounds      |     Work
 Expl Unexpl |  Obj  Depth IntInf | Incumbent    BestBd   Gap | It/Node Time

     0     0   21.46750    0   58          -   21.46750     -      -    0s
H    0     0                      25.0000000   21.46750  14.1%     -    0s
H    0     0                      24.0000000   21.46750  10.6%     -    0s
H    0     0                      22.0000000   21.46750  2.42%     -    0s

Explored 0 nodes (3058 simplex iterations) in 0.24 seconds
Thread count was 1 (of 4 available processors)

Optimal solution found (tolerance 0.00e+00)
Best objective 2.200000000000e+01, best bound 2.200000000000e+01, gap 0.0%
Preprocessing time: 0.03 seconds
Gurobi run time: 0.24 seconds
Total run time: 0.27 seconds
Objective: 22
Solution:
1 x [i=1, i=2, i=15, i=16, i=19]
1 x [i=1, i=18, i=35, i=35, i=41]
1 x [i=3, i=3, i=3, i=12, i=16]
1 x [i=4, i=6, i=7, i=8, i=10]
1 x [i=5, i=6, i=7, i=9, i=10]
1 x [i=6, i=9, i=12, i=19, i=20]
1 x [i=7, i=9, i=12, i=13, i=17]
1 x [i=8, i=10, i=11, i=12, i=16]
1 x [i=8, i=15, i=16, i=18]
1 x [i=9, i=12, i=13, i=14, i=22]
1 x [i=20, i=23, i=28, i=37, i=40, i=42]
2 x [i=20, i=26, i=27, i=37, i=37, i=43]
2 x [i=21, i=25, i=27, i=34, i=40, i=42]
1 x [i=22, i=25, i=26, i=29, i=41, i=45]
1 x [i=22, i=22, i=24, i=32, i=44, i=45]
1 x [i=24, i=27, i=30, i=33, i=39, i=45]
1 x [i=24, i=28, i=31, i=34, i=36, i=38]
1 x [i=24, i=32, i=33, i=33, i=33, i=35]
1 x [i=24, i=32, i=32, i=33, i=34, i=35]
1 x [i=26, i=28, i=28, i=36, i=38]
